p tdp 66 65
18 52
47 30
46 33
19 17
55 31
12 59
9 10
32 40
8 36
2 48
56 49
2 39
43 53
66 44
1 56
22 43
13 57
60 16
15 63
59 38
13 9
45 31
65 46
64 6
9 37
21 54
14 31
66 23
50 51
3 7
32 27
56 4
35 15
47 42
6 51
60 15
46 28
23 11
48 8
34 41
46 27
3 8
61 63
20 54
62 44
34 49
47 24
64 52
37 2
47 14
26 5
26 7
10 29
1 47
45 17
58 7
15 22
12 25
62 40
11 54
43 2
32 51
25 14
26 20
1 35
